(set-logic HORN)
(declare-fun state ((Array Int Int) (Array Int Int) Int Int Bool Int Int) Bool)
(assert (forall ((|A_1| (Array Int Int)) (|B_1| (Array Int Int)) (|C_1| Int) (|D_0| Int) (|.loc.2| Bool) (|E| Int) (|E_1| Int) (|.x.4| Int) (|v_4| Int) (|.x.2| (Array Int Int)) (|.x.3| (Array Int Int)) (|.loc.3| Bool) (|.xtv.1| Int) (|.xpv.1| Int)) (=> (and (= C_1 0) (not .loc.2)) (state |A_1| |B_1| |C_1| |D_0| |.loc.2| |E| |E_1|))))
(assert (forall ((|A_1| (Array Int Int)) (|B_1| (Array Int Int)) (|C_1| Int) (|D_0| Int) (|.loc.2| Bool) (|E| Int) (|E_1| Int) (|.x.4| Int) (|v_4| Int) (|.x.2| (Array Int Int)) (|.x.3| (Array Int Int)) (|.loc.3| Bool) (|.xtv.1| Int) (|.xpv.1| Int)) (=> (and (state |A_1| |B_1| |C_1| |D_0| |.loc.2| |E| |E_1|) (let ((.def_19 (not .loc.2))) (let ((.def_25 (<= D_0 C_1))) (let ((.def_36 (not .def_25))) (let ((.def_41 (= (+ C_1 (* (- 1) v_4)) (- 1)))) (and (= D_0 .x.4) (or (and (or (and .def_19 (and (and (= v_4 0) .def_25) (= A_1 .x.2))) (and (= .x.2 (store A_1 C_1 (+ (select A_1 C_1) 1))) (and (and .loc.2 .def_36) .def_41))) (and (= B_1 .x.3) .loc.3)) (and (= .x.2 (store A_1 C_1 E)) (and (= .x.3 (store B_1 C_1 (* (- 1) E))) (and (not .loc.3) (and .def_41 (and .def_19 .def_36)))))))))))) (state |.x.2| |.x.3| |v_4| |.x.4| |.loc.3| |.xtv.1| |.xpv.1|))))
(assert (forall ((|A_1| (Array Int Int)) (|B_1| (Array Int Int)) (|C_1| Int) (|D_0| Int) (|.loc.2| Bool) (|E| Int) (|E_1| Int) (|.x.4| Int) (|v_4| Int) (|.x.2| (Array Int Int)) (|.x.3| (Array Int Int)) (|.loc.3| Bool) (|.xtv.1| Int) (|.xpv.1| Int)) (=> (state |A_1| |B_1| |C_1| |D_0| |.loc.2| |E| |E_1|) (not (and .loc.2 (and (and (<= D_0 C_1) (and (not (<= E_1 0)) (not (<= (select B_1 E_1) (select A_1 E_1))))) (not (<= D_0 E_1))))))))
(check-sat)
